c @top --> 23
c p0@v0 --> 20
c p1@v4 --> 18
c p1@v3 --> 17
c p9 --> 19
c p1@v1 --> 15
c p0@v1 --> 21
c p7 --> 2
c p1@v2 --> 16
c p4 --> 3
c p5@v0 --> 11
c p5@v2 --> 13
c p1@v0 --> 14
c p3@v0 --> 4
c p6@v0 --> 8
c p3@v2 --> 6
c p5@v1 --> 12
c p3@v1 --> 5
c p2 --> 7
c p0@v2 --> 22
c p6@v2 --> 10
c p8 --> 1
c p6@v1 --> 9
p cnf 23 45
-1 2 0
-17 -22 0
-16 -22 0
-15 -22 0
-2 1 0
-14 -22 0
-17 19 0
-2 -19 -16 0
-2 -19 -14 0
-3 -5 0
-2 -18 -19 0
-15 -2 -19 0
-3 -4 0
-6 3 0
-18 -21 0
2 19 0
-18 -20 0
4 5 6 0
-4 -5 0
-4 -6 0
-5 -6 0
8 9 10 0
-8 -9 0
-8 -10 0
-9 -10 0
11 12 13 0
-11 -12 0
-11 -13 0
-12 -13 0
14 15 16 17 18 0
-14 -15 0
-14 -16 0
-14 -17 0
-14 -18 0
-15 -16 0
-15 -17 0
-15 -18 0
-16 -17 0
-16 -18 0
-17 -18 0
20 21 22 0
-20 -21 0
-20 -22 0
-21 -22 0
23 -23 0
